115       
TS_new_correctbasis_full_GALC
N 1.753778 8.624644 6.914075
N 2.550218 7.247903 3.111643
N 3.367348 5.383110 3.933543
N 5.538888 0.281755 5.741216
N 4.273438 1.973867 5.130928
C 0.150682 3.917116 5.743255
C -0.081038 4.293664 7.074397
C -0.615432 5.548086 7.365147
C -0.928835 6.470160 6.350934
C -0.703147 6.069373 5.028104
C -0.175644 4.815385 4.715575
C -1.523857 7.827504 6.674402
C -0.625417 8.751134 7.537335
C 0.582588 9.321742 6.799035
C 3.006003 9.120136 6.359835
C 3.132396 9.009050 4.827684
C 3.139911 7.601974 4.314689
C 2.703579 5.915936 2.919167
C 3.648867 6.424209 4.804637
C 5.454547 1.400956 4.975045
C 3.571968 1.186151 6.032494
C 4.342457 0.121970 6.424132
C 4.080895 -1.013664 7.357289
C 0.672208 1.351587 1.636348
C 0.647722 0.708872 0.214017
C -0.712425 -0.006078 -0.039485
C -1.922171 0.903926 0.311996
C -1.745795 1.500629 1.732041
C 1.925318 2.221569 1.897199
O 0.671720 2.684547 5.504370
O 0.518958 10.371392 6.158355
O -0.486211 2.193316 1.843679
O -2.788235 2.431633 1.997296
O -3.134894 0.156309 0.244538
O -0.803612 -0.431715 -1.399827
O 0.882587 1.687316 -0.802402
O 1.905376 2.742348 3.220818
Cu 3.535724 3.495681 4.247160
H 2.801984 1.588654 1.759445
H 0.153952 3.588759 7.866642
H -0.807200 5.807431 8.405901
H -0.951461 6.752635 4.216135
H -0.007658 4.525975 3.683216
H -2.466824 7.693499 7.223765
H -1.779111 8.351124 5.747019
H 1.727461 7.701973 7.329219
H 3.821155 8.580642 6.852180
H 3.098714 10.177469 6.627694
H 4.056279 9.525780 4.528375
H 2.302139 9.566012 4.380369
H 2.091968 7.881771 2.469580
H 2.326126 5.381588 2.063382
H 4.189876 6.246398 5.720677
H 6.330693 -0.345345 5.772416
H 2.560372 1.436563 6.314765
H 4.782739 -1.023771 8.199838
H 3.069099 -0.926609 7.767225
H 4.150592 -1.984566 6.849393
H 0.959001 2.594566 4.551470
H 6.248098 1.742076 4.327501
H -0.306839 8.216197 8.440138
H -1.212842 9.618151 7.854904
H 0.679865 0.550797 2.383183
H 1.451268 -0.032142 0.142803
H -0.756849 -0.905010 0.581874
H -1.986861 1.719817 -0.414148
H -1.809511 0.711581 2.486223
H -2.639250 2.715940 2.923235
H -3.845711 0.801035 0.446571
H -1.684442 -0.856584 -1.471970
H 0.164172 2.346204 -0.701728
H 1.956002 3.062467 1.202028
H 6.663101 3.480635 0.827659
C 6.360470 4.055926 1.702619
H 5.408222 3.675983 2.095089
C 6.234764 5.552023 1.315023
H 7.074040 4.002454 2.538387
C 5.236291 5.842316 0.190368
C 4.287039 4.909031 -0.248575
H 4.264410 3.899176 0.147086
C 3.350376 5.243668 -1.233722
H 2.639027 4.493816 -1.568933
C 3.340350 6.523993 -1.793367
H 2.615592 6.781337 -2.562479
C 4.286634 7.461161 -1.367274
H 4.302395 8.457191 -1.804980
C 5.225503 7.122426 -0.391035
H 5.976664 7.839448 -0.076102
N 7.520389 6.208057 1.033001
H 5.835910 6.043895 2.214780
H 8.004377 5.675748 0.308447
H 8.111556 6.179993 1.862691
C 3.749679 -0.425570 0.961990
C 3.816871 -0.440750 -0.459425
C 3.597161 -1.640326 -1.153368
C 3.312706 -2.843987 -0.497260
C 3.244177 -2.817443 0.905795
C 3.450024 -1.640259 1.617499
C 3.037837 -4.114083 -1.276264
C 1.547629 -4.301517 -1.620145
C 5.926485 1.031388 -1.666935
O 3.981835 0.680459 1.689937
H 6.472812 0.885846 -0.735032
S 4.103331 1.070457 -1.385894
H 3.649550 -1.622516 -2.240313
H 3.022228 -3.736217 1.447299
H 3.392470 -1.626916 2.702751
H 3.385542 -4.981200 -0.698738
H 3.621137 -4.108865 -2.206284
H 6.157444 1.979662 -2.162076
H 6.181283 0.219729 -2.352824
H 2.942500 1.426183 1.826446
H 1.177433 -3.467384 -2.226797
H 0.937689 -4.346138 -0.707780
H 1.389531 -5.230252 -2.182302
